============================[ Problem Statistics ]=============================|                                                                             ||  Number of variables:          4242                                         ||  Number of clauses:           10072                                         ||  Parse time:                   0.47 s                                       ||                                                                             |============================[ Search Statistics ]==============================| Conflicts |          ORIGINAL         |          LEARNT          | Progress ||           |    Vars  Clauses Literals |    Limit  Clauses Lit/Cl |          |===============================================================================|       100 |    1591     6277   734108 |     2301      100     53 | 62.501 % ||       250 |    1591     6277   734108 |     2531      250     75 | 62.495 % |===============================================================================restarts              : 3conflicts             : 260            (368 /sec)decisions             : 525            (0.00 % random) (743 /sec)propagations          : 11773          (16652 /sec)conflict literals     : 19835          (94.86 % deleted)CPU time              : 0.707 sSATISFIABLE